103 6
14 15 14 14 16 15
1 0 0 0 0 0 0 3 2 3 4
5 0 2 0 4 0 7 4 5 6 7 8
10 6 0 8 0 0 7 4 103 6 7 8
4 0 6 0 2 5 0 3 6 7 8
10 10 0 1 6 8 0 3 9 11 12
4 0 10 2 0 0 0 1 12
4 0 8 0 6 6 4 3 10 11 12
5 8 0 0 0 0 0 1 9
6 4 0 10 0 0 4 3 13 14 16
12 6 0 0 9 0 0 4 13 14 15 16
9 4 0 4 0 0 5 4 13 14 15 16
4 0 0 5 0 10 0 4 13 14 15 16
9 0 0 0 2 0 7 2 18 19
9 10 0 7 0 5 0 2 17 18
6 5 0 2 3 0 9 4 17 18 19 20
5 4 7 0 0 0 0 2 18 19
5 0 5 0 0 8 0 4 21 22 23 24
10 9 0 0 5 0 7 3 22 23 24
11 0 0 0 8 0 1 4 21 22 23 24
6 0 0 0 0 9 0 4 21 22 23 24
7 5 0 7 4 0 0 3 25 26 27
6 0 0 2 0 0 0 3 25 26 27
8 0 0 0 0 6 0 2 26 28
10 1 6 0 8 5 7 4 25 26 27 28
10 3 2 0 9 8 0 3 29 30 32
11 0 8 0 3 0 2 3 29 30 32
6 0 0 5 0 0 8 4 29 30 31 32
9 0 1 0 0 10 0 3 29 30 32
7 4 7 7 0 5 0 4 33 34 35 36
7 0 9 2 10 7 0 4 33 34 35 36
4 1 0 8 5 0 10 4 33 34 35 36
8 0 10 5 0 6 6 4 33 34 35 36
4 9 6 0 10 0 3 3 38 39 40
9 10 2 0 0 1 6 4 37 38 39 40
9 1 0 9 0 5 0 4 37 38 39 40
9 10 0 0 0 0 4 4 37 38 39 40
7 0 6 9 1 5 8 3 42 43 44
6 9 0 5 9 3 8 3 41 42 44
6 0 5 2 0 0 3 2 42 43
12 7 0 0 0 6 0 3 41 42 43
4 8 0 0 0 8 7 3 45 47 48
1 8 4 0 1 0 8 4 45 46 47 48
3 1 7 7 2 5 0 4 45 46 47 48
8 0 0 4 5 0 9 3 45 47 48
6 0 9 6 4 7 0 4 49 50 51 52
10 5 7 6 9 0 3 4 49 50 51 52
1 0 10 6 10 8 0 3 49 51 52
1 0 4 8 0 0 0 4 49 50 51 52
5 0 1 0 10 0 0 4 53 54 55 56
6 0 0 0 0 0 0 4 53 54 55 56
7 2 3 0 5 0 6 4 53 54 55 56
5 0 3 0 0 7 3 4 53 54 55 56
7 7 0 1 0 2 3 4 57 58 59 60
1 3 9 0 0 0 6 2 58 59
8 0 0 3 1 0 8 2 58 59
3 10 0 0 0 2 1 2 58 60
3 1 3 9 0 1 0 3 62 63 64
6 0 8 0 0 10 6 4 61 62 63 64
4 0 0 0 9 0 4 3 62 63 64
6 9 2 4 0 5 0 3 61 63 64
3 0 7 0 0 6 10 3 65 66 67
6 3 0 6 3 2 9 3 65 67 68
4 8 4 0 0 0 0 3 65 66 68
4 0 3 5 8 0 0 3 65 67 68
5 0 0 9 0 0 0 4 69 70 71 72
8 5 0 0 0 5 7 4 69 70 71 72
10 7 0 0 7 0 0 3 69 70 72
9 0 7 0 0 0 7 3 69 70 72
4 0 0 2 3 6 0 3 73 74 76
9 0 0 0 8 0 3 4 73 74 75 76
4 0 6 3 0 9 0 4 73 74 75 76
7 0 0 4 0 0 0 4 73 74 75 76
3 0 7 4 9 0 7 3 77 78 79
6 0 6 0 0 0 3 4 77 78 79 80
6 6 10 1 9 5 4 3 77 78 80
7 0 9 9 0 10 0 3 77 78 79
10 4 0 4 3 1 8 4 81 82 83 84
9 0 0 0 10 0 0 4 81 82 83 84
9 0 0 3 0 0 1 3 82 83 84
11 0 0 2 7 0 0 4 81 82 83 84
6 3 9 7 0 1 0 4 85 86 87 88
7 0 6 0 0 2 0 4 85 86 87 88
4 0 0 4 1 6 10 4 85 86 87 88
7 1 2 0 0 6 0 3 85 86 88
5 10 0 5 0 7 0 3 89 90 92
7 10 7 7 6 6 0 3 89 90 91
10 4 0 0 10 8 3 3 89 90 92
3 0 0 7 9 3 4 3 89 90 91
7 1 0 0 2 0 9 3 93 94 95
10 0 0 0 0 6 0 3 93 94 95
1 0 0 0 0 9 0 3 93 94 95
6 0 10 2 0 6 3 4 93 94 95 96
4 9 1 0 0 0 2 1 99
5 8 6 2 0 5 9 2 98 100
5 7 2 7 0 5 2 3 97 99 100
11 2 0 0 3 0 8 2 97 99
1 0 9 3 1 0 0 1 102
1 0 0 8 9 0 2 1 101
8 0 0 0 10 4 7 2 101 102
3 0 6 0 0 7 4 1 102
7 0 8 7 0 7 0 1 103
5 9 0 3 0 6 0 1 103
0 0 0 0 0 0 0 0
